clingo version 5.6.2
Reading from ...gen_asp_scripts/ijp_expt_cases-1074.dl
Solving...
UNSATISFIABLE

Models       : 0
Calls        : 1
Time         : 45.183s (Solving: 44.18s 1st Model: 0.00s Unsat: 44.18s)
CPU Time     : 45.152s
